4 5
64 82 87 59 
0 98 64 75 82 59 1 36 19 8 63 15 48 74 50 25 36 84 91 47 83 4
1 71 44 79 79 96 13 4 56 42 84 86 69 100 64 40 77 19 40 67 34 1
2 44 46 45 17 53 87 54 58 94 86 95 43 3 89 77 23 5 55 9 88 4
3 92 11 69 58 53 12 30 59 97 95 9 52 9 49 71 19 51 43 61 97 3
4 58 8 26 59 3 1 71 52 29 60 9 36 77 69 31 100 10 43 96 25 4
